0	30
30	60
60	90
90	120
120	150
150	180
180	240
240	300
300	360
360	420
420	540
540	660
660	780
780	900
900	1200
1200	1500
1500	1800
1800	2100
2100	2400
2400	2700
2700	3000
3000	3300
3300	3600
3600	3900
3900	4200
4200	4500
4500	4800
4800	5100
5100	5400